SPARKNaCl/why3-z3/sparknacl.adb_1362_26_range_check2_1.smt2
;; produced by z3_gnatprove.drv ;;
(set-info :smt-lib-version 2.5)
(set-info :source |VC generated by SPARK 2014|)
(set-info :category industrial)
(set-info :status unknown)
;;; generated by SMT-LIB2 driver
;;; SMT-LIB2 driver: bit-vectors, common part
;;; SMT-LIB2: integer arithmetic
(declare-datatypes ()
  ((int__ref (int__refqtmk (int__content Int)))))

(declare-datatypes ()
  ((bool__ref (bool__refqtmk (bool__content Bool)))))

(declare-sort tinteger_32B 0)

;; "tinteger_32B'int"
(declare-fun tinteger_32Bqtint (tinteger_32B) Int)

;; "tinteger_32B'axiom"
(assert
  (forall ((i tinteger_32B))
    (and
      (<= (- 2147483648) (tinteger_32Bqtint i))
      (<= (tinteger_32Bqtint i) 2147483647))))

;; "in_range"
(define-fun in_range ((x Int)) Bool
  (and (<= (- 2147483648) x) (<= x 2147483647)))

(declare-sort byte 0)

;; "to_rep"
(define-fun to_rep ((x tinteger_32B)) Int
  (tinteger_32Bqtint x))

;; "of_rep"
(declare-fun of_rep (Int) tinteger_32B)

;; "inversion_axiom"
(assert
  (forall ((x tinteger_32B))
    (! (= (of_rep (to_rep x)) x) :pattern ((to_rep x)) )))

;; "range_axiom"
(assert
  (forall ((x tinteger_32B))
    (! (in_range (to_rep x)) :pattern ((to_rep x)) )))

;; "coerce_axiom"
(assert
  (forall ((x Int))
    (! (=> (in_range x) (= (to_rep (of_rep x)) x)) :pattern ((to_rep
                                                               (of_rep x))) )))

;; "in_range"
(define-fun in_range1 ((x Int)) Bool
  (and (<= 0 x) (<= x 2147483647)))

;; "to_rep"
(declare-fun to_rep1 (byte) (_ BitVec 8))

;; "of_rep"
(declare-fun of_rep1 ((_ BitVec 8)) byte)

;; "inversion_axiom"
(assert
  (forall ((x byte)) (! (= (of_rep1 (to_rep1 x)) x) :pattern ((to_rep1 x)) )))

;; "range_axiom"
(assert true)

;; "coerce_axiom"
(assert
  (forall ((x (_ BitVec 8)))
    (! (= (to_rep1 (of_rep1 x)) x) :pattern ((to_rep1 (of_rep1 x))) )))

(declare-sort map1 0)

;; "has_bounds"
(declare-fun has_bounds (map1
  Int
  Int) Bool)

;; "get"
(declare-fun get (map1
  Int) byte)

(declare-datatypes ()
  ((t (tqtmk (rec__first tinteger_32B)(rec__last tinteger_32B)))))

;; "dynamic_property"
(define-fun dynamic_property ((range_first Int) (range_last Int) (low Int) (high Int)) Bool
  (and
    (in_range low)
    (and
      (in_range high)
      (=> (<= low high) (and (in_range1 low) (in_range1 high))))))

(declare-datatypes ()
  ((us_t (us_tqtmk (elts map1)(rt t)))))

;; "to_array"
(define-fun to_array ((a us_t)) map1
  (elts a))

;; "first"
(define-fun first ((a us_t)) Int
  (to_rep (rec__first (rt a))))

;; "last"
(define-fun last ((a us_t)) Int
  (to_rep (rec__last (rt a))))

;; "well_formed"
(define-fun well_formed ((a us_t)) Bool
  (has_bounds
    (elts a)
    (to_rep (rec__first (rt a)))
    (to_rep (rec__last (rt a)))))

(declare-const x us_t)

(declare-const y us_t)

;; "dynamic_invariant"
(define-fun dynamic_invariant ((temp___expr_387 us_t) (temp___is_init_383 Bool) (temp___skip_constant_384 Bool) (temp___do_toplevel_385 Bool) (temp___do_typ_inv_386 Bool)) Bool
  (and
    (=>
      (not (= temp___skip_constant_384 true))
      (dynamic_property
        0
        2147483647
        (first temp___expr_387)
        (last temp___expr_387)))
    (well_formed temp___expr_387)))

;; "Assume"
(assert (dynamic_invariant x true false true true))

;; "Assume"
(assert (dynamic_invariant y true false true true))

;; "Assume"
(assert (and (= (first x) (first y)) (= (last x) (last y))))

(declare-const d Bool)

;; "d'unused"
(define-fun dqtunused () bool__ref
  (bool__refqtmk d))

;; "H"
(assert (= d true))

;; "temp___1437"
(define-fun temp___1437 () Int
  (first x))

;; "first'result'unused"
(define-fun firstqtresultqtunused () Int
  temp___1437)

;; "temp___1438"
(define-fun temp___1438 () Int
  (last x))

;; "last'result'unused"
(define-fun lastqtresultqtunused () Int
  temp___1438)

(declare-const i Int)

;; "i'unused"
(define-fun iqtunused () int__ref
  (int__refqtmk i))

;; "H"
(assert (= i temp___1437))

;; "int__content'result'unused"
(define-fun int__contentqtresultqtunused () Int
  i)

;; "o"
(define-fun o () Bool
  (ite (<= i temp___1438) true false))

;; "infix <='result'unused"
(define-fun infix_lseqqtresultqtunused () Bool
  o)

;; "int__content'result'unused"
(define-fun int__contentqtresultqtunused1 () Int
  i)

;; "o"
(define-fun o1 () Bool
  (ite (<= temp___1437 i) true false))

;; "infix <='result'unused"
(define-fun infix_lseqqtresultqtunused1 () Bool
  o1)

;; "o"
(define-fun o2 () Bool
  (and o1 o))

;; "andb'result'unused"
(define-fun andbqtresultqtunused () Bool
  o2)

;; "H"
(assert (= o2 true))

;; "temp___loop_entry_1441'unused"
(define-fun temp___loop_entry_1441qtunused () Bool
  d)

;; "bool__content'result'unused"
(define-fun bool__contentqtresultqtunused () Bool
  d)

;; "int__content'result'unused"
(define-fun int__contentqtresultqtunused2 () Int
  i)

;; "Assert"
(assert (and (<= (first y) i) (<= i (last y))))

;; "o"
(define-fun o3 () map1
  (to_array y))

;; "to_array'result'unused"
(define-fun to_arrayqtresultqtunused () map1
  o3)

;; "o"
(define-fun o4 () byte
  (get o3 i))

;; "get'result'unused"
(define-fun getqtresultqtunused () byte
  o4)

(declare-const o5 (_ BitVec 8))

;; "Ensures"
(assert (= (to_rep1 o4) o5))

;; "to_rep'result'unused"
(define-fun to_repqtresultqtunused () (_ BitVec 8)
  o5)

;; "int__content'result'unused"
(define-fun int__contentqtresultqtunused3 () Int
  i)

;; "o"
(define-fun o6 () map1
  (to_array x))

;; "to_array'result'unused"
(define-fun to_arrayqtresultqtunused1 () map1
  o6)

;; "o"
(define-fun o7 () byte
  (get o6 i))

;; "get'result'unused"
(define-fun getqtresultqtunused1 () byte
  o7)

(declare-const o8 (_ BitVec 8))

;; "Ensures"
(assert (= (to_rep1 o7) o8))

;; "to_rep'result'unused"
(define-fun to_repqtresultqtunused1 () (_ BitVec 8)
  o8)

;; "o"
(define-fun o9 () Bool
  (ite (= o8 o5) true false))

;; "eq'result'unused"
(define-fun eqqtresultqtunused () Bool
  o9)

;; "bool__content'result'unused"
(define-fun bool__contentqtresultqtunused1 () Bool
  d)

;; "o"
(define-fun o10 () Bool
  (and d o9))

;; "andb'result'unused"
(define-fun andbqtresultqtunused1 () Bool
  o10)

(declare-const d1 Bool)

;; "d'unused"
(define-fun dqtunused1 () bool__ref
  (bool__refqtmk d1))

;; "H"
(assert (= d1 o10))

(declare-const usf Int)

;; "any'result'unused"
(define-fun anyqtresultqtunused () Int
  usf)

;; "j'unused"
(define-fun jqtunused () Int
  usf)

;; "H"
(assert (<= (first x) i))

;; Goal "def'vc"
;; File "sparknacl.ads", line 114, characters 0-0
(assert
  (not (<= i 2147483647)))

(check-sat)
